certificates/rado_a13_c225_N36.cnf
c Rad2 upper bound instance: x1 + 13*x2 - x3 = 225, interval [1,36]
p cnf 36 198
1 10 18 0
-1 -10 -18 0
1 19 23 0
-1 -19 -23 0
1 20 36 0
-1 -20 -36 0
2 11 18 0
-2 -11 -18 0
2 19 24 0
-2 -19 -24 0
3 12 18 0
-3 -12 -18 0
3 19 25 0
-3 -19 -25 0
4 13 18 0
-4 -13 -18 0
4 19 26 0
-4 -19 -26 0
1 5 17 0
-1 -5 -17 0
5 14 18 0
-5 -14 -18 0
5 19 27 0
-5 -19 -27 0
2 6 17 0
-2 -6 -17 0
6 15 18 0
-6 -15 -18 0
6 19 28 0
-6 -19 -28 0
3 7 17 0
-3 -7 -17 0
7 16 18 0
-7 -16 -18 0
7 19 29 0
-7 -19 -29 0
4 8 17 0
-4 -8 -17 0
8 17 18 0
-8 -17 -18 0
8 19 30 0
-8 -19 -30 0
5 9 17 0
-5 -9 -17 0
9 18 0
-9 -18 0
9 19 31 0
-9 -19 -31 0
6 10 17 0
-6 -10 -17 0
10 18 19 0
-10 -18 -19 0
10 19 32 0
-10 -19 -32 0
7 11 17 0
-7 -11 -17 0
11 18 20 0
-11 -18 -20 0
11 19 33 0
-11 -19 -33 0
8 12 17 0
-8 -12 -17 0
12 18 21 0
-12 -18 -21 0
12 19 34 0
-12 -19 -34 0
9 13 17 0
-9 -13 -17 0
13 18 22 0
-13 -18 -22 0
13 19 35 0
-13 -19 -35 0
10 14 17 0
-10 -14 -17 0
14 18 23 0
-14 -18 -23 0
14 19 36 0
-14 -19 -36 0
11 15 17 0
-11 -15 -17 0
15 18 24 0
-15 -18 -24 0
12 16 17 0
-12 -16 -17 0
16 18 25 0
-16 -18 -25 0
13 17 0
-13 -17 0
17 18 26 0
-17 -18 -26 0
1 16 18 0
-1 -16 -18 0
14 17 18 0
-14 -17 -18 0
18 27 0
-18 -27 0
2 16 19 0
-2 -16 -19 0
15 17 19 0
-15 -17 -19 0
18 19 28 0
-18 -19 -28 0
3 16 20 0
-3 -16 -20 0
16 17 20 0
-16 -17 -20 0
18 20 29 0
-18 -20 -29 0
4 16 21 0
-4 -16 -21 0
17 21 0
-17 -21 0
18 21 30 0
-18 -21 -30 0
5 16 22 0
-5 -16 -22 0
17 18 22 0
-17 -18 -22 0
18 22 31 0
-18 -22 -31 0
6 16 23 0
-6 -16 -23 0
17 19 23 0
-17 -19 -23 0
18 23 32 0
-18 -23 -32 0
7 16 24 0
-7 -16 -24 0
17 20 24 0
-17 -20 -24 0
18 24 33 0
-18 -24 -33 0
8 16 25 0
-8 -16 -25 0
17 21 25 0
-17 -21 -25 0
18 25 34 0
-18 -25 -34 0
9 16 26 0
-9 -16 -26 0
17 22 26 0
-17 -22 -26 0
18 26 35 0
-18 -26 -35 0
10 16 27 0
-10 -16 -27 0
17 23 27 0
-17 -23 -27 0
18 27 36 0
-18 -27 -36 0
11 16 28 0
-11 -16 -28 0
17 24 28 0
-17 -24 -28 0
12 16 29 0
-12 -16 -29 0
17 25 29 0
-17 -25 -29 0
13 16 30 0
-13 -16 -30 0
17 26 30 0
-17 -26 -30 0
1 15 31 0
-1 -15 -31 0
14 16 31 0
-14 -16 -31 0
17 27 31 0
-17 -27 -31 0
2 15 32 0
-2 -15 -32 0
15 16 32 0
-15 -16 -32 0
17 28 32 0
-17 -28 -32 0
3 15 33 0
-3 -15 -33 0
16 33 0
-16 -33 0
17 29 33 0
-17 -29 -33 0
4 15 34 0
-4 -15 -34 0
16 17 34 0
-16 -17 -34 0
17 30 34 0
-17 -30 -34 0
5 15 35 0
-5 -15 -35 0
16 18 35 0
-16 -18 -35 0
17 31 35 0
-17 -31 -35 0
6 15 36 0
-6 -15 -36 0
16 19 36 0
-16 -19 -36 0
17 32 36 0
-17 -32 -36 0
