certificates/rado_a13_c225_N36.drat
17 16 -36 0
16 -34 -36 0
-34 -35 -36 0
17 34 0
-16 -17 -35 0
-35 -36 0
d -34 -35 -36 0
-17 -36 0
-36 0
-16 17 0
17 0
-13 0
-21 0
16 0
-33 0
-34 0
-12 0
-20 0
-35 0
18 0
19 0
1 0
-9 0
-26 0
-27 0
-22 0
0
